## System parameters
num_wann = 16
num_bands = 20

begin unit_cell_cart
ang
   2.027733378   3.512137236   0.000000000
  -2.027733378   3.512137236   0.000000000
   0.000000000   0.000000000  20.500000000
end unit_cell_cart

begin atoms_frac
  In   0.333334671   0.333334671   0.431781565
  In   0.333334812   0.333334812   0.568224866
  Se   0.666665091   0.666665091   0.369744698
  Se   0.666665427   0.666665427   0.630258871
end atoms_frac

mp_grid = 12 12 1

begin kpoints
  0.00000000  0.00000000  0.00000000 
  0.00000000  0.08333333  0.00000000 
  0.00000000  0.16666667  0.00000000 
  0.00000000  0.25000000  0.00000000 
  0.00000000  0.33333333  0.00000000 
  0.00000000  0.41666667  0.00000000 
  0.00000000  0.50000000  0.00000000 
  0.00000000  0.58333333  0.00000000 
  0.00000000  0.66666667  0.00000000 
  0.00000000  0.75000000  0.00000000 
  0.00000000  0.83333333  0.00000000 
  0.00000000  0.91666667  0.00000000 
  0.08333333  0.00000000  0.00000000 
  0.08333333  0.08333333  0.00000000 
  0.08333333  0.16666667  0.00000000 
  0.08333333  0.25000000  0.00000000 
  0.08333333  0.33333333  0.00000000 
  0.08333333  0.41666667  0.00000000 
  0.08333333  0.50000000  0.00000000 
  0.08333333  0.58333333  0.00000000 
  0.08333333  0.66666667  0.00000000 
  0.08333333  0.75000000  0.00000000 
  0.08333333  0.83333333  0.00000000 
  0.08333333  0.91666667  0.00000000 
  0.16666667  0.00000000  0.00000000 
  0.16666667  0.08333333  0.00000000 
  0.16666667  0.16666667  0.00000000 
  0.16666667  0.25000000  0.00000000 
  0.16666667  0.33333333  0.00000000 
  0.16666667  0.41666667  0.00000000 
  0.16666667  0.50000000  0.00000000 
  0.16666667  0.58333333  0.00000000 
  0.16666667  0.66666667  0.00000000 
  0.16666667  0.75000000  0.00000000 
  0.16666667  0.83333333  0.00000000 
  0.16666667  0.91666667  0.00000000 
  0.25000000  0.00000000  0.00000000 
  0.25000000  0.08333333  0.00000000 
  0.25000000  0.16666667  0.00000000 
  0.25000000  0.25000000  0.00000000 
  0.25000000  0.33333333  0.00000000 
  0.25000000  0.41666667  0.00000000 
  0.25000000  0.50000000  0.00000000 
  0.25000000  0.58333333  0.00000000 
  0.25000000  0.66666667  0.00000000 
  0.25000000  0.75000000  0.00000000 
  0.25000000  0.83333333  0.00000000 
  0.25000000  0.91666667  0.00000000 
  0.33333333  0.00000000  0.00000000 
  0.33333333  0.08333333  0.00000000 
  0.33333333  0.16666667  0.00000000 
  0.33333333  0.25000000  0.00000000 
  0.33333333  0.33333333  0.00000000 
  0.33333333  0.41666667  0.00000000 
  0.33333333  0.50000000  0.00000000 
  0.33333333  0.58333333  0.00000000 
  0.33333333  0.66666667  0.00000000 
  0.33333333  0.75000000  0.00000000 
  0.33333333  0.83333333  0.00000000 
  0.33333333  0.91666667  0.00000000 
  0.41666667  0.00000000  0.00000000 
  0.41666667  0.08333333  0.00000000 
  0.41666667  0.16666667  0.00000000 
  0.41666667  0.25000000  0.00000000 
  0.41666667  0.33333333  0.00000000 
  0.41666667  0.41666667  0.00000000 
  0.41666667  0.50000000  0.00000000 
  0.41666667  0.58333333  0.00000000 
  0.41666667  0.66666667  0.00000000 
  0.41666667  0.75000000  0.00000000 
  0.41666667  0.83333333  0.00000000 
  0.41666667  0.91666667  0.00000000 
  0.50000000  0.00000000  0.00000000 
  0.50000000  0.08333333  0.00000000 
  0.50000000  0.16666667  0.00000000 
  0.50000000  0.25000000  0.00000000 
  0.50000000  0.33333333  0.00000000 
  0.50000000  0.41666667  0.00000000 
  0.50000000  0.50000000  0.00000000 
  0.50000000  0.58333333  0.00000000 
  0.50000000  0.66666667  0.00000000 
  0.50000000  0.75000000  0.00000000 
  0.50000000  0.83333333  0.00000000 
  0.50000000  0.91666667  0.00000000 
  0.58333333  0.00000000  0.00000000 
  0.58333333  0.08333333  0.00000000 
  0.58333333  0.16666667  0.00000000 
  0.58333333  0.25000000  0.00000000 
  0.58333333  0.33333333  0.00000000 
  0.58333333  0.41666667  0.00000000 
  0.58333333  0.50000000  0.00000000 
  0.58333333  0.58333333  0.00000000 
  0.58333333  0.66666667  0.00000000 
  0.58333333  0.75000000  0.00000000 
  0.58333333  0.83333333  0.00000000 
  0.58333333  0.91666667  0.00000000 
  0.66666667  0.00000000  0.00000000 
  0.66666667  0.08333333  0.00000000 
  0.66666667  0.16666667  0.00000000 
  0.66666667  0.25000000  0.00000000 
  0.66666667  0.33333333  0.00000000 
  0.66666667  0.41666667  0.00000000 
  0.66666667  0.50000000  0.00000000 
  0.66666667  0.58333333  0.00000000 
  0.66666667  0.66666667  0.00000000 
  0.66666667  0.75000000  0.00000000 
  0.66666667  0.83333333  0.00000000 
  0.66666667  0.91666667  0.00000000 
  0.75000000  0.00000000  0.00000000 
  0.75000000  0.08333333  0.00000000 
  0.75000000  0.16666667  0.00000000 
  0.75000000  0.25000000  0.00000000 
  0.75000000  0.33333333  0.00000000 
  0.75000000  0.41666667  0.00000000 
  0.75000000  0.50000000  0.00000000 
  0.75000000  0.58333333  0.00000000 
  0.75000000  0.66666667  0.00000000 
  0.75000000  0.75000000  0.00000000 
  0.75000000  0.83333333  0.00000000 
  0.75000000  0.91666667  0.00000000 
  0.83333333  0.00000000  0.00000000 
  0.83333333  0.08333333  0.00000000 
  0.83333333  0.16666667  0.00000000 
  0.83333333  0.25000000  0.00000000 
  0.83333333  0.33333333  0.00000000 
  0.83333333  0.41666667  0.00000000 
  0.83333333  0.50000000  0.00000000 
  0.83333333  0.58333333  0.00000000 
  0.83333333  0.66666667  0.00000000 
  0.83333333  0.75000000  0.00000000 
  0.83333333  0.83333333  0.00000000 
  0.83333333  0.91666667  0.00000000 
  0.91666667  0.00000000  0.00000000 
  0.91666667  0.08333333  0.00000000 
  0.91666667  0.16666667  0.00000000 
  0.91666667  0.25000000  0.00000000 
  0.91666667  0.33333333  0.00000000 
  0.91666667  0.41666667  0.00000000 
  0.91666667  0.50000000  0.00000000 
  0.91666667  0.58333333  0.00000000 
  0.91666667  0.66666667  0.00000000 
  0.91666667  0.75000000  0.00000000 
  0.91666667  0.83333333  0.00000000 
  0.91666667  0.91666667  0.00000000 
end kpoints

## Projections
begin projections
In:l=0;l=1
Se:l=0;l=1
end projections

## Job control
#restart =

## Disentanglement
#dis_win_min =
#dis_win_max =
#dis_froz_min =
dis_froz_max = 3.0

## Wannierise
num_iter = 0

## Plot
#wannier_plot = .true.
#wannier_plot_format = xcrysden
#wannier_plot_mode = crystal
#wannier_plot_supercell = 6 6 1
#wannier_plot_list = 1-16

bands_plot = .true.
bands_plot_format = gnuplot
bands_plot_mode = cut
bands_plot_dim = 2
hr_cutoff = 1.0E-4
one_dim_axis = z
bands_num_points = 100

begin kpoint_path
   G   0.000000000   0.000000000   0.000000000   M   0.500000000   0.000000000   0.000000000
   M   0.500000000   0.000000000   0.000000000   K   0.666666667   0.333333333   0.000000000
   K   0.666666667   0.333333333   0.000000000   G   0.000000000   0.000000000   0.000000000
end kpoint_path

write_hr = .true.
