## System parameters
num_wann = 11
num_bands = 11
exclude_bands = 1-2, 14-24

begin unit_cell_cart
ang
   3.181400000   0.000000000   0.000000000
  -1.590690383   2.755178772   0.000000000
   0.000000000   0.000000000  15.900000000
end unit_cell_cart

begin atoms_frac
   S   0.000000000  -0.000000000   0.480070000
   S   0.000000000  -0.000000000   0.676430000
  Mo   0.666670000   0.333330000   0.578250000
end atoms_frac

mp_grid = 12 12 1

begin kpoints
  0.00000000  0.00000000  0.00000000 
  0.00000000  0.08333333  0.00000000 
  0.00000000  0.16666667  0.00000000 
  0.00000000  0.25000000  0.00000000 
  0.00000000  0.33333333  0.00000000 
  0.00000000  0.41666667  0.00000000 
  0.00000000  0.50000000  0.00000000 
  0.00000000  0.58333333  0.00000000 
  0.00000000  0.66666667  0.00000000 
  0.00000000  0.75000000  0.00000000 
  0.00000000  0.83333333  0.00000000 
  0.00000000  0.91666667  0.00000000 
  0.08333333  0.00000000  0.00000000 
  0.08333333  0.08333333  0.00000000 
  0.08333333  0.16666667  0.00000000 
  0.08333333  0.25000000  0.00000000 
  0.08333333  0.33333333  0.00000000 
  0.08333333  0.41666667  0.00000000 
  0.08333333  0.50000000  0.00000000 
  0.08333333  0.58333333  0.00000000 
  0.08333333  0.66666667  0.00000000 
  0.08333333  0.75000000  0.00000000 
  0.08333333  0.83333333  0.00000000 
  0.08333333  0.91666667  0.00000000 
  0.16666667  0.00000000  0.00000000 
  0.16666667  0.08333333  0.00000000 
  0.16666667  0.16666667  0.00000000 
  0.16666667  0.25000000  0.00000000 
  0.16666667  0.33333333  0.00000000 
  0.16666667  0.41666667  0.00000000 
  0.16666667  0.50000000  0.00000000 
  0.16666667  0.58333333  0.00000000 
  0.16666667  0.66666667  0.00000000 
  0.16666667  0.75000000  0.00000000 
  0.16666667  0.83333333  0.00000000 
  0.16666667  0.91666667  0.00000000 
  0.25000000  0.00000000  0.00000000 
  0.25000000  0.08333333  0.00000000 
  0.25000000  0.16666667  0.00000000 
  0.25000000  0.25000000  0.00000000 
  0.25000000  0.33333333  0.00000000 
  0.25000000  0.41666667  0.00000000 
  0.25000000  0.50000000  0.00000000 
  0.25000000  0.58333333  0.00000000 
  0.25000000  0.66666667  0.00000000 
  0.25000000  0.75000000  0.00000000 
  0.25000000  0.83333333  0.00000000 
  0.25000000  0.91666667  0.00000000 
  0.33333333  0.00000000  0.00000000 
  0.33333333  0.08333333  0.00000000 
  0.33333333  0.16666667  0.00000000 
  0.33333333  0.25000000  0.00000000 
  0.33333333  0.33333333  0.00000000 
  0.33333333  0.41666667  0.00000000 
  0.33333333  0.50000000  0.00000000 
  0.33333333  0.58333333  0.00000000 
  0.33333333  0.66666667  0.00000000 
  0.33333333  0.75000000  0.00000000 
  0.33333333  0.83333333  0.00000000 
  0.33333333  0.91666667  0.00000000 
  0.41666667  0.00000000  0.00000000 
  0.41666667  0.08333333  0.00000000 
  0.41666667  0.16666667  0.00000000 
  0.41666667  0.25000000  0.00000000 
  0.41666667  0.33333333  0.00000000 
  0.41666667  0.41666667  0.00000000 
  0.41666667  0.50000000  0.00000000 
  0.41666667  0.58333333  0.00000000 
  0.41666667  0.66666667  0.00000000 
  0.41666667  0.75000000  0.00000000 
  0.41666667  0.83333333  0.00000000 
  0.41666667  0.91666667  0.00000000 
  0.50000000  0.00000000  0.00000000 
  0.50000000  0.08333333  0.00000000 
  0.50000000  0.16666667  0.00000000 
  0.50000000  0.25000000  0.00000000 
  0.50000000  0.33333333  0.00000000 
  0.50000000  0.41666667  0.00000000 
  0.50000000  0.50000000  0.00000000 
  0.50000000  0.58333333  0.00000000 
  0.50000000  0.66666667  0.00000000 
  0.50000000  0.75000000  0.00000000 
  0.50000000  0.83333333  0.00000000 
  0.50000000  0.91666667  0.00000000 
  0.58333333  0.00000000  0.00000000 
  0.58333333  0.08333333  0.00000000 
  0.58333333  0.16666667  0.00000000 
  0.58333333  0.25000000  0.00000000 
  0.58333333  0.33333333  0.00000000 
  0.58333333  0.41666667  0.00000000 
  0.58333333  0.50000000  0.00000000 
  0.58333333  0.58333333  0.00000000 
  0.58333333  0.66666667  0.00000000 
  0.58333333  0.75000000  0.00000000 
  0.58333333  0.83333333  0.00000000 
  0.58333333  0.91666667  0.00000000 
  0.66666667  0.00000000  0.00000000 
  0.66666667  0.08333333  0.00000000 
  0.66666667  0.16666667  0.00000000 
  0.66666667  0.25000000  0.00000000 
  0.66666667  0.33333333  0.00000000 
  0.66666667  0.41666667  0.00000000 
  0.66666667  0.50000000  0.00000000 
  0.66666667  0.58333333  0.00000000 
  0.66666667  0.66666667  0.00000000 
  0.66666667  0.75000000  0.00000000 
  0.66666667  0.83333333  0.00000000 
  0.66666667  0.91666667  0.00000000 
  0.75000000  0.00000000  0.00000000 
  0.75000000  0.08333333  0.00000000 
  0.75000000  0.16666667  0.00000000 
  0.75000000  0.25000000  0.00000000 
  0.75000000  0.33333333  0.00000000 
  0.75000000  0.41666667  0.00000000 
  0.75000000  0.50000000  0.00000000 
  0.75000000  0.58333333  0.00000000 
  0.75000000  0.66666667  0.00000000 
  0.75000000  0.75000000  0.00000000 
  0.75000000  0.83333333  0.00000000 
  0.75000000  0.91666667  0.00000000 
  0.83333333  0.00000000  0.00000000 
  0.83333333  0.08333333  0.00000000 
  0.83333333  0.16666667  0.00000000 
  0.83333333  0.25000000  0.00000000 
  0.83333333  0.33333333  0.00000000 
  0.83333333  0.41666667  0.00000000 
  0.83333333  0.50000000  0.00000000 
  0.83333333  0.58333333  0.00000000 
  0.83333333  0.66666667  0.00000000 
  0.83333333  0.75000000  0.00000000 
  0.83333333  0.83333333  0.00000000 
  0.83333333  0.91666667  0.00000000 
  0.91666667  0.00000000  0.00000000 
  0.91666667  0.08333333  0.00000000 
  0.91666667  0.16666667  0.00000000 
  0.91666667  0.25000000  0.00000000 
  0.91666667  0.33333333  0.00000000 
  0.91666667  0.41666667  0.00000000 
  0.91666667  0.50000000  0.00000000 
  0.91666667  0.58333333  0.00000000 
  0.91666667  0.66666667  0.00000000 
  0.91666667  0.75000000  0.00000000 
  0.91666667  0.83333333  0.00000000 
  0.91666667  0.91666667  0.00000000 
end kpoints

## Projections
begin projections
S:p
Mo:d
end projections

## Job control
#restart =

## Disentanglement
#dis_win_min =
#dis_win_max =
#dis_froz_min =
#dis_froz_max =

## Wannierise
num_iter = 10000
guiding_centres = .true.
kmesh_tol = 0.0001

## Plot
#wannier_plot = .true.
#wannier_plot_format = xcrysden
#wannier_plot_mode = crystal
#wannier_plot_supercell =
#wannier_plot_list =
#
bands_plot = .true.
bands_plot_format = gnuplot
bands_plot_mode = cut
bands_plot_dim = 2
hr_cutoff = 1.0E-4
one_dim_axis = 'z'
bands_num_points = 100

begin kpoint_path
   G   0.00000   0.00000   0.00000   K   0.33333   0.33333   0.00000
   K   0.33333   0.33333   0.00000   M   0.50000   0.00000   0.00000
   M   0.50000   0.00000   0.00000   G   0.00000   0.00000   0.00000
end kpoint_path

write_hr = .true
write_xyz = .true.
